p tw 160 32801 2 
1 82 
1 83 
1 85 
1 87 
1 89 
1 92 
1 93 
1 95 
1 97 
1 99 
1 101 
1 104 
1 106 
1 107 
1 109 
1 111 
1 113 
1 115 
1 117 
1 119 
1 122 
1 123 
1 126 
1 127 
1 129 
1 131 
1 133 
1 135 
1 137 
1 139 
1 141 
1 144 
1 145 
1 147 
1 149 
1 152 
1 154 
1 155 
1 157 
1 160 
2 81 
2 84 
2 86 
2 88 
2 90 
2 91 
2 94 
2 96 
2 98 
2 100 
2 102 
2 103 
2 105 
2 108 
2 110 
2 112 
2 114 
2 116 
2 118 
2 120 
2 121 
2 124 
2 125 
2 128 
2 130 
2 132 
2 134 
2 136 
2 138 
2 140 
2 142 
2 143 
2 146 
2 148 
2 150 
2 151 
2 153 
2 156 
2 158 
2 159 
3 4 
3 82 
3 84 
3 85 
3 88 
3 90 
3 92 
3 94 
3 96 
3 97 
3 100 
3 101 
3 104 
3 106 
3 108 
3 110 
3 111 
3 114 
3 116 
3 117 
3 119 
3 122 
3 123 
3 126 
3 128 
3 130 
3 132 
3 134 
3 136 
3 138 
3 140 
3 141 
3 144 
3 146 
3 147 
3 149 
3 152 
3 154 
3 156 
3 158 
3 160 
4 81 
4 83 
4 86 
4 87 
4 89 
4 91 
4 93 
4 95 
4 98 
4 99 
4 102 
4 103 
4 105 
4 107 
4 109 
4 112 
4 113 
4 115 
4 118 
4 120 
4 121 
4 124 
4 125 
4 127 
4 129 
4 131 
4 133 
4 135 
4 137 
4 139 
4 142 
4 143 
4 145 
4 148 
4 150 
4 151 
4 153 
4 155 
4 157 
4 159 
5 6 
5 82 
5 83 
5 86 
5 88 
5 89 
5 92 
5 93 
5 96 
5 98 
5 99 
5 101 
5 103 
5 105 
5 108 
5 109 
5 111 
5 113 
5 115 
5 118 
5 120 
5 121 
5 123 
5 126 
5 127 
5 130 
5 132 
5 133 
5 136 
5 138 
5 140 
5 141 
5 143 
5 146 
5 148 
5 149 
5 152 
5 154 
5 156 
5 157 
5 159 
6 81 
6 84 
6 85 
6 87 
6 90 
6 91 
6 94 
6 95 
6 97 
6 100 
6 102 
6 104 
6 106 
6 107 
6 110 
6 112 
6 114 
6 116 
6 117 
6 119 
6 122 
6 124 
6 125 
6 128 
6 129 
6 131 
6 134 
6 135 
6 137 
6 139 
6 142 
6 144 
6 145 
6 147 
6 150 
6 151 
6 153 
6 155 
6 158 
6 160 
7 8 
7 82 
7 84 
7 85 
7 87 
7 90 
7 91 
7 94 
7 95 
7 98 
7 99 
7 101 
7 103 
7 105 
7 107 
7 110 
7 111 
7 113 
7 115 
7 117 
7 120 
7 121 
7 124 
7 125 
7 127 
7 130 
7 132 
7 133 
7 136 
7 137 
7 140 
7 142 
7 144 
7 146 
7 147 
7 150 
7 152 
7 154 
7 155 
7 158 
7 160 
8 81 
8 83 
8 86 
8 88 
8 89 
8 92 
8 93 
8 96 
8 97 
8 100 
8 102 
8 104 
8 106 
8 108 
8 109 
8 112 
8 114 
8 116 
8 118 
8 119 
8 122 
8 123 
8 126 
8 128 
8 129 
8 131 
8 134 
8 135 
8 138 
8 139 
8 141 
8 143 
8 145 
8 148 
8 149 
8 151 
8 153 
8 156 
8 157 
8 159 
9 10 
9 81 
9 84 
9 86 
9 87 
9 90 
9 92 
9 93 
9 96 
9 97 
9 99 
9 102 
9 104 
9 105 
9 108 
9 110 
9 111 
9 114 
9 115 
9 117 
9 119 
9 122 
9 124 
9 125 
9 127 
9 130 
9 131 
9 133 
9 135 
9 137 
9 140 
9 141 
9 143 
9 146 
9 148 
9 150 
9 151 
9 154 
9 156 
9 157 
9 160 
10 82 
10 83 
10 85 
10 88 
10 89 
10 91 
10 94 
10 95 
10 98 
10 100 
10 101 
10 103 
10 106 
10 107 
10 109 
10 112 
10 113 
10 116 
10 118 
10 120 
10 121 
10 123 
10 126 
10 128 
10 129 
10 132 
10 134 
10 136 
10 138 
10 139 
10 142 
10 144 
10 145 
10 147 
10 149 
10 152 
10 153 
10 155 
10 158 
10 159 
11 12 
11 82 
11 84 
11 85 
11 88 
11 89 
11 92 
11 93 
11 95 
11 97 
11 100 
11 101 
11 104 
11 105 
11 108 
11 110 
11 112 
11 113 
11 115 
11 117 
11 120 
11 121 
11 124 
11 125 
11 127 
11 129 
11 131 
11 134 
11 136 
11 138 
11 140 
11 142 
11 144 
11 145 
11 148 
11 149 
11 151 
11 153 
11 156 
11 157 
11 160 
12 81 
12 83 
12 86 
12 87 
12 90 
12 91 
12 94 
12 96 
12 98 
12 99 
12 102 
12 103 
12 106 
12 107 
12 109 
12 111 
12 114 
12 116 
12 118 
12 119 
12 122 
12 123 
12 126 
12 128 
12 130 
12 132 
12 133 
12 135 
12 137 
12 139 
12 141 
12 143 
12 146 
12 147 
12 150 
12 152 
12 154 
12 155 
12 158 
12 159 
13 14 
13 82 
13 83 
13 86 
13 87 
13 90 
13 91 
13 93 
13 95 
13 97 
13 99 
13 102 
13 103 
13 105 
13 107 
13 110 
13 112 
13 114 
13 115 
13 118 
13 119 
13 121 
13 123 
13 125 
13 128 
13 129 
13 131 
13 134 
13 136 
13 138 
13 139 
13 141 
13 144 
13 146 
13 148 
13 149 
13 152 
13 154 
13 156 
13 158 
13 160 
14 81 
14 84 
14 85 
14 88 
14 89 
14 92 
14 94 
14 96 
14 98 
14 100 
14 101 
14 104 
14 106 
14 108 
14 109 
14 111 
14 113 
14 116 
14 117 
14 120 
14 122 
14 124 
14 126 
14 127 
14 130 
14 132 
14 133 
14 135 
14 137 
14 140 
14 142 
14 143 
14 145 
14 147 
14 150 
14 151 
14 153 
14 155 
14 157 
14 159 
15 16 
15 82 
15 83 
15 86 
15 87 
15 89 
15 92 
15 94 
15 95 
15 97 
15 100 
15 101 
15 104 
15 105 
15 107 
15 110 
15 111 
15 114 
15 116 
15 118 
15 120 
15 121 
15 124 
15 126 
15 127 
15 129 
15 131 
15 134 
15 135 
15 138 
15 140 
15 141 
15 143 
15 146 
15 147 
15 150 
15 151 
15 154 
15 155 
15 158 
15 159 
16 81 
16 84 
16 85 
16 88 
16 90 
16 91 
16 93 
16 96 
16 98 
16 99 
16 102 
16 103 
16 106 
16 108 
16 109 
16 112 
16 113 
16 115 
16 117 
16 119 
16 122 
16 123 
16 125 
16 128 
16 130 
16 132 
16 133 
16 136 
16 137 
16 139 
16 142 
16 144 
16 145 
16 148 
16 149 
16 152 
16 153 
16 156 
16 157 
16 160 
17 18 
17 81 
17 84 
17 85 
17 88 
17 89 
17 92 
17 93 
17 96 
17 98 
17 100 
17 101 
17 103 
17 106 
17 107 
17 110 
17 111 
17 114 
17 115 
17 118 
17 119 
17 121 
17 123 
17 125 
17 127 
17 130 
17 131 
17 134 
17 135 
17 138 
17 139 
17 142 
17 143 
17 145 
17 148 
17 150 
17 152 
17 154 
17 155 
17 158 
17 160 
18 82 
18 83 
18 86 
18 87 
18 90 
18 91 
18 94 
18 95 
18 97 
18 99 
18 102 
18 104 
18 105 
18 108 
18 109 
18 112 
18 113 
18 116 
18 117 
18 120 
18 122 
18 124 
18 126 
18 128 
18 129 
18 132 
18 133 
18 136 
18 137 
18 140 
18 141 
18 144 
18 146 
18 147 
18 149 
18 151 
18 153 
18 156 
18 157 
18 159 
19 20 
19 81 
19 83 
19 85 
19 88 
19 89 
19 91 
19 93 
19 95 
19 98 
19 100 
19 101 
19 103 
19 105 
19 108 
19 109 
19 112 
19 114 
19 115 
19 117 
19 119 
19 122 
19 124 
19 126 
19 128 
19 129 
19 132 
19 133 
19 135 
19 138 
19 140 
19 141 
19 144 
19 146 
19 148 
19 150 
19 151 
19 154 
19 155 
19 158 
19 160 
20 82 
20 84 
20 86 
20 87 
20 90 
20 92 
20 94 
20 96 
20 97 
20 99 
20 102 
20 104 
20 106 
20 107 
20 110 
20 111 
20 113 
20 116 
20 118 
20 120 
20 121 
20 123 
20 125 
20 127 
20 130 
20 131 
20 134 
20 136 
20 137 
20 139 
20 142 
20 143 
20 145 
20 147 
20 149 
20 152 
20 153 
20 156 
20 157 
20 159 
21 22 
21 81 
21 83 
21 85 
21 87 
21 89 
21 91 
21 93 
21 95 
21 98 
21 100 
21 102 
21 104 
21 106 
21 108 
21 109 
21 111 
21 113 
21 116 
21 117 
21 120 
21 121 
21 124 
21 125 
21 128 
21 130 
21 131 
21 134 
21 136 
21 138 
21 139 
21 141 
21 143 
21 146 
21 147 
21 150 
21 152 
21 154 
21 156 
21 157 
21 160 
22 82 
22 84 
22 86 
22 88 
22 90 
22 92 
22 94 
22 96 
22 97 
22 99 
22 101 
22 103 
22 105 
22 107 
22 110 
22 112 
22 114 
22 115 
22 118 
22 119 
22 122 
22 123 
22 126 
22 127 
22 129 
22 132 
22 133 
22 135 
22 137 
22 140 
22 142 
22 144 
22 145 
22 148 
22 149 
22 151 
22 153 
22 155 
22 158 
22 159 
23 24 
23 82 
23 84 
23 86 
23 87 
23 89 
23 92 
23 94 
23 95 
23 98 
23 99 
23 102 
23 104 
23 106 
23 107 
23 109 
23 112 
23 114 
23 115 
23 118 
23 120 
23 122 
23 124 
23 126 
23 128 
23 130 
23 132 
23 134 
23 135 
23 138 
23 140 
23 142 
23 144 
23 145 
23 148 
23 150 
23 152 
23 154 
23 156 
23 157 
23 160 
24 81 
24 83 
24 85 
24 88 
24 90 
24 91 
24 93 
24 96 
24 97 
24 100 
24 101 
24 103 
24 105 
24 108 
24 110 
24 111 
24 113 
24 116 
24 117 
24 119 
24 121 
24 123 
24 125 
24 127 
24 129 
24 131 
24 133 
24 136 
24 137 
24 139 
24 141 
24 143 
24 146 
24 147 
24 149 
24 151 
24 153 
24 155 
24 158 
24 159 
25 26 
25 81 
25 84 
25 86 
25 88 
25 90 
25 92 
25 93 
25 95 
25 97 
25 99 
25 101 
25 104 
25 105 
25 108 
25 109 
25 111 
25 113 
25 116 
25 118 
25 119 
25 121 
25 124 
25 125 
25 128 
25 129 
25 132 
25 133 
25 135 
25 138 
25 139 
25 142 
25 144 
25 145 
25 147 
25 150 
25 152 
25 154 
25 156 
25 158 
25 159 
26 82 
26 83 
26 85 
26 87 
26 89 
26 91 
26 94 
26 96 
26 98 
26 100 
26 102 
26 103 
26 106 
26 107 
26 110 
26 112 
26 114 
26 115 
26 117 
26 120 
26 122 
26 123 
26 126 
26 127 
26 130 
26 131 
26 134 
26 136 
26 137 
26 140 
26 141 
26 143 
26 146 
26 148 
26 149 
26 151 
26 153 
26 155 
26 157 
26 160 
27 28 
27 82 
27 84 
27 86 
27 88 
27 90 
27 91 
27 93 
27 96 
27 98 
27 100 
27 101 
27 104 
27 106 
27 107 
27 109 
27 112 
27 114 
27 115 
27 117 
27 120 
27 121 
27 123 
27 125 
27 127 
27 129 
27 132 
27 134 
27 135 
27 137 
27 139 
27 141 
27 144 
27 146 
27 147 
27 150 
27 151 
27 154 
27 156 
27 157 
27 159 
28 81 
28 83 
28 85 
28 87 
28 89 
28 92 
28 94 
28 95 
28 97 
28 99 
28 102 
28 103 
28 105 
28 108 
28 110 
28 111 
28 113 
28 116 
28 118 
28 119 
28 122 
28 124 
28 126 
28 128 
28 130 
28 131 
28 133 
28 136 
28 138 
28 140 
28 142 
28 143 
28 145 
28 148 
28 149 
28 152 
28 153 
28 155 
28 158 
28 160 
29 30 
29 81 
29 83 
29 86 
29 88 
29 90 
29 91 
29 94 
29 96 
29 97 
29 99 
29 101 
29 103 
29 106 
29 108 
29 109 
29 111 
29 114 
29 115 
29 118 
29 120 
29 122 
29 124 
29 125 
29 127 
29 129 
29 131 
29 134 
29 136 
29 138 
29 140 
29 141 
29 144 
29 145 
29 147 
29 150 
29 152 
29 153 
29 155 
29 157 
29 160 
30 82 
30 84 
30 85 
30 87 
30 89 
30 92 
30 93 
30 95 
30 98 
30 100 
30 102 
30 104 
30 105 
30 107 
30 110 
30 112 
30 113 
30 116 
30 117 
30 119 
30 121 
30 123 
30 126 
30 128 
30 130 
30 132 
30 133 
30 135 
30 137 
30 139 
30 142 
30 143 
30 146 
30 148 
30 149 
30 151 
30 154 
30 156 
30 158 
30 159 
31 32 
31 81 
31 83 
31 86 
31 88 
31 89 
31 92 
31 94 
31 95 
31 98 
31 99 
31 101 
31 103 
31 106 
31 107 
31 110 
31 112 
31 114 
31 116 
31 117 
31 119 
31 122 
31 124 
31 125 
31 127 
31 130 
31 131 
31 133 
31 136 
31 138 
31 139 
31 142 
31 144 
31 146 
31 147 
31 149 
31 151 
31 154 
31 156 
31 157 
31 159 
32 82 
32 84 
32 85 
32 87 
32 90 
32 91 
32 93 
32 96 
32 97 
32 100 
32 102 
32 104 
32 105 
32 108 
32 109 
32 111 
32 113 
32 115 
32 118 
32 120 
32 121 
32 123 
32 126 
32 128 
32 129 
32 132 
32 134 
32 135 
32 137 
32 140 
32 141 
32 143 
32 145 
32 148 
32 150 
32 152 
32 153 
32 155 
32 158 
32 160 
33 34 
33 81 
33 83 
33 85 
33 87 
33 90 
33 92 
33 93 
33 96 
33 97 
33 100 
33 101 
33 103 
33 105 
33 107 
33 109 
33 112 
33 114 
33 116 
33 118 
33 120 
33 121 
33 123 
33 126 
33 128 
33 130 
33 131 
33 133 
33 136 
33 137 
33 140 
33 142 
33 144 
33 145 
33 147 
33 150 
33 151 
33 154 
33 156 
33 157 
33 160 
34 82 
34 84 
34 86 
34 88 
34 89 
34 91 
34 94 
34 95 
34 98 
34 99 
34 102 
34 104 
34 106 
34 108 
34 110 
34 111 
34 113 
34 115 
34 117 
34 119 
34 122 
34 124 
34 125 
34 127 
34 129 
34 132 
34 134 
34 135 
34 138 
34 139 
34 141 
34 143 
34 146 
34 148 
34 149 
34 152 
34 153 
34 155 
34 158 
34 159 
35 36 
35 81 
35 84 
35 86 
35 88 
35 89 
35 91 
35 94 
35 95 
35 97 
35 100 
35 102 
35 103 
35 105 
35 108 
35 109 
35 111 
35 113 
35 115 
35 118 
35 120 
35 122 
35 123 
35 126 
35 127 
35 130 
35 131 
35 134 
35 135 
35 137 
35 139 
35 142 
35 144 
35 146 
35 147 
35 149 
35 151 
35 154 
35 156 
35 158 
35 160 
36 82 
36 83 
36 85 
36 87 
36 90 
36 92 
36 93 
36 96 
36 98 
36 99 
36 101 
36 104 
36 106 
36 107 
36 110 
36 112 
36 114 
36 116 
36 117 
36 119 
36 121 
36 124 
36 125 
36 128 
36 129 
36 132 
36 133 
36 136 
36 138 
36 140 
36 141 
36 143 
36 145 
36 148 
36 150 
36 152 
36 153 
36 155 
36 157 
36 159 
37 38 
37 82 
37 84 
37 85 
37 87 
37 89 
37 91 
37 94 
37 96 
37 98 
37 100 
37 102 
37 103 
37 105 
37 108 
37 110 
37 112 
37 113 
37 116 
37 118 
37 119 
37 122 
37 123 
37 125 
37 127 
37 129 
37 131 
37 133 
37 135 
37 138 
37 140 
37 141 
37 144 
37 145 
37 147 
37 150 
37 152 
37 154 
37 156 
37 157 
37 159 
38 81 
38 83 
38 86 
38 88 
38 90 
38 92 
38 93 
38 95 
38 97 
38 99 
38 101 
38 104 
38 106 
38 107 
38 109 
38 111 
38 114 
38 115 
38 117 
38 120 
38 121 
38 124 
38 126 
38 128 
38 130 
38 132 
38 134 
38 136 
38 137 
38 139 
38 142 
38 143 
38 146 
38 148 
38 149 
38 151 
38 153 
38 155 
38 158 
38 160 
39 40 
39 81 
39 84 
39 85 
39 87 
39 90 
39 92 
39 93 
39 95 
39 97 
39 100 
39 102 
39 103 
39 106 
39 108 
39 110 
39 112 
39 114 
39 115 
39 118 
39 120 
39 121 
39 124 
39 126 
39 127 
39 130 
39 132 
39 133 
39 135 
39 138 
39 139 
39 141 
39 144 
39 146 
39 147 
39 149 
39 152 
39 153 
39 155 
39 157 
39 159 
40 82 
40 83 
40 86 
40 88 
40 89 
40 91 
40 94 
40 96 
40 98 
40 99 
40 101 
40 104 
40 105 
40 107 
40 109 
40 111 
40 113 
40 116 
40 117 
40 119 
40 122 
40 123 
40 125 
40 128 
40 129 
40 131 
40 134 
40 136 
40 137 
40 140 
40 142 
40 143 
40 145 
40 148 
40 150 
40 151 
40 154 
40 156 
40 158 
40 160 
41 42 
41 81 
41 84 
41 86 
41 88 
41 89 
41 91 
41 94 
41 96 
41 97 
41 99 
41 101 
41 104 
41 105 
41 107 
41 110 
41 112 
41 113 
41 116 
41 117 
41 120 
41 121 
41 123 
41 126 
41 128 
41 130 
41 131 
41 133 
41 135 
41 138 
41 139 
41 141 
41 144 
41 146 
41 148 
41 150 
41 152 
41 153 
41 155 
41 157 
41 160 
42 82 
42 83 
42 85 
42 87 
42 90 
42 92 
42 93 
42 95 
42 98 
42 100 
42 102 
42 103 
42 106 
42 108 
42 109 
42 111 
42 114 
42 115 
42 118 
42 119 
42 122 
42 124 
42 125 
42 127 
42 129 
42 132 
42 134 
42 136 
42 137 
42 140 
42 142 
42 143 
42 145 
42 147 
42 149 
42 151 
42 154 
42 156 
42 158 
42 159 
43 44 
43 81 
43 84 
43 86 
43 87 
43 89 
43 91 
43 93 
43 96 
43 98 
43 99 
43 102 
43 104 
43 106 
43 108 
43 110 
43 111 
43 114 
43 115 
43 117 
43 120 
43 121 
43 123 
43 126 
43 128 
43 129 
43 131 
43 133 
43 136 
43 138 
43 140 
43 142 
43 144 
43 145 
43 147 
43 149 
43 151 
43 154 
43 155 
43 158 
43 159 
44 82 
44 83 
44 85 
44 88 
44 90 
44 92 
44 94 
44 95 
44 97 
44 100 
44 101 
44 103 
44 105 
44 107 
44 109 
44 112 
44 113 
44 116 
44 118 
44 119 
44 122 
44 124 
44 125 
44 127 
44 130 
44 132 
44 134 
44 135 
44 137 
44 139 
44 141 
44 143 
44 146 
44 148 
44 150 
44 152 
44 153 
44 156 
44 157 
44 160 
45 46 
45 82 
45 84 
45 86 
45 87 
45 89 
45 91 
45 93 
45 96 
45 97 
45 100 
45 101 
45 103 
45 106 
45 107 
45 110 
45 111 
45 113 
45 115 
45 118 
45 119 
45 122 
45 124 
45 126 
45 128 
45 129 
45 132 
45 133 
45 136 
45 138 
45 139 
45 142 
45 143 
45 146 
45 147 
45 150 
45 151 
45 153 
45 156 
45 157 
45 160 
46 81 
46 83 
46 85 
46 88 
46 90 
46 92 
46 94 
46 95 
46 98 
46 99 
46 102 
46 104 
46 105 
46 108 
46 109 
46 112 
46 114 
46 116 
46 117 
46 120 
46 121 
46 123 
46 125 
46 127 
46 130 
46 131 
46 134 
46 135 
46 137 
46 140 
46 141 
46 144 
46 145 
46 148 
46 149 
46 152 
46 154 
46 155 
46 158 
46 159 
47 48 
47 81 
47 84 
47 85 
47 88 
47 90 
47 92 
47 94 
47 95 
47 98 
47 99 
47 102 
47 104 
47 106 
47 107 
47 109 
47 112 
47 113 
47 115 
47 118 
47 119 
47 121 
47 123 
47 126 
47 127 
47 129 
47 131 
47 133 
47 136 
47 138 
47 140 
47 141 
47 143 
47 146 
47 147 
47 150 
47 151 
47 153 
47 156 
47 158 
47 160 
48 82 
48 83 
48 86 
48 87 
48 89 
48 91 
48 93 
48 96 
48 97 
48 100 
48 101 
48 103 
48 105 
48 108 
48 110 
48 111 
48 114 
48 116 
48 117 
48 120 
48 122 
48 124 
48 125 
48 128 
48 130 
48 132 
48 134 
48 135 
48 137 
48 139 
48 142 
48 144 
48 145 
48 148 
48 149 
48 152 
48 154 
48 155 
48 157 
48 159 
49 50 
49 82 
49 84 
49 85 
49 87 
49 90 
49 91 
49 93 
49 95 
49 98 
49 99 
49 101 
49 104 
49 105 
49 108 
49 109 
49 111 
49 114 
49 116 
49 118 
49 119 
49 122 
49 123 
49 126 
49 127 
49 130 
49 131 
49 134 
49 136 
49 138 
49 139 
49 142 
49 144 
49 146 
49 148 
49 150 
49 151 
49 153 
49 155 
49 157 
49 159 
50 81 
50 83 
50 86 
50 88 
50 89 
50 92 
50 94 
50 96 
50 97 
50 100 
50 102 
50 103 
50 106 
50 107 
50 110 
50 112 
50 113 
50 115 
50 117 
50 120 
50 121 
50 124 
50 125 
50 128 
50 129 
50 132 
50 133 
50 135 
50 137 
50 140 
50 141 
50 143 
50 145 
50 147 
50 149 
50 152 
50 154 
50 156 
50 158 
50 160 
51 52 
51 82 
51 83 
51 86 
51 88 
51 90 
51 92 
51 93 
51 96 
51 98 
51 100 
51 102 
51 104 
51 106 
51 108 
51 110 
51 112 
51 113 
51 116 
51 118 
51 120 
51 122 
51 124 
51 126 
51 127 
51 129 
51 131 
51 133 
51 136 
51 137 
51 139 
51 142 
51 144 
51 146 
51 148 
51 150 
51 152 
51 154 
51 155 
51 158 
51 160 
52 81 
52 84 
52 85 
52 87 
52 89 
52 91 
52 94 
52 95 
52 97 
52 99 
52 101 
52 103 
52 105 
52 107 
52 109 
52 111 
52 114 
52 115 
52 117 
52 119 
52 121 
52 123 
52 125 
52 128 
52 130 
52 132 
52 134 
52 135 
52 138 
52 140 
52 141 
52 143 
52 145 
52 147 
52 149 
52 151 
52 153 
52 156 
52 157 
52 159 
53 54 
53 82 
53 84 
53 85 
53 88 
53 89 
53 91 
53 93 
53 96 
53 97 
53 99 
53 102 
53 104 
53 105 
53 107 
53 109 
53 112 
53 114 
53 116 
53 118 
53 120 
53 122 
53 124 
53 125 
53 127 
53 130 
53 132 
53 133 
53 136 
53 138 
53 139 
53 141 
53 143 
53 145 
53 147 
53 149 
53 151 
53 154 
53 155 
53 158 
53 160 
54 81 
54 83 
54 86 
54 87 
54 90 
54 92 
54 94 
54 95 
54 98 
54 100 
54 101 
54 103 
54 106 
54 108 
54 110 
54 111 
54 113 
54 115 
54 117 
54 119 
54 121 
54 123 
54 126 
54 128 
54 129 
54 131 
54 134 
54 135 
54 137 
54 140 
54 142 
54 144 
54 146 
54 148 
54 150 
54 152 
54 153 
54 156 
54 157 
54 159 
55 56 
55 82 
55 83 
55 85 
55 88 
55 90 
55 92 
55 93 
55 96 
55 98 
55 99 
55 102 
55 103 
55 105 
55 107 
55 110 
55 111 
55 113 
55 115 
55 117 
55 120 
55 122 
55 124 
55 126 
55 128 
55 130 
55 131 
55 134 
55 135 
55 138 
55 139 
55 141 
55 144 
55 145 
55 147 
55 150 
55 151 
55 153 
55 156 
55 158 
55 159 
56 81 
56 84 
56 86 
56 87 
56 89 
56 91 
56 94 
56 95 
56 97 
56 100 
56 101 
56 104 
56 106 
56 108 
56 109 
56 112 
56 114 
56 116 
56 118 
56 119 
56 121 
56 123 
56 125 
56 127 
56 129 
56 132 
56 133 
56 136 
56 137 
56 140 
56 142 
56 143 
56 146 
56 148 
56 149 
56 152 
56 154 
56 155 
56 157 
56 160 
57 58 
57 81 
57 83 
57 85 
57 88 
57 90 
57 91 
57 94 
57 95 
57 97 
57 100 
57 102 
57 104 
57 105 
57 107 
57 110 
57 111 
57 114 
57 115 
57 117 
57 120 
57 122 
57 123 
57 126 
57 127 
57 129 
57 132 
57 133 
57 136 
57 138 
57 139 
57 142 
57 143 
57 145 
57 148 
57 150 
57 152 
57 154 
57 156 
57 157 
57 159 
58 82 
58 84 
58 86 
58 87 
58 89 
58 92 
58 93 
58 96 
58 98 
58 99 
58 101 
58 103 
58 106 
58 108 
58 109 
58 112 
58 113 
58 116 
58 118 
58 119 
58 121 
58 124 
58 125 
58 128 
58 130 
58 131 
58 134 
58 135 
58 137 
58 140 
58 141 
58 144 
58 146 
58 147 
58 149 
58 151 
58 153 
58 155 
58 158 
58 160 
59 60 
59 81 
59 83 
59 85 
59 88 
59 89 
59 91 
59 93 
59 96 
59 98 
59 99 
59 102 
59 104 
59 105 
59 107 
59 110 
59 111 
59 114 
59 116 
59 118 
59 119 
59 121 
59 124 
59 126 
59 127 
59 129 
59 132 
59 134 
59 135 
59 137 
59 140 
59 142 
59 144 
59 146 
59 147 
59 149 
59 152 
59 153 
59 156 
59 157 
59 160 
60 82 
60 84 
60 86 
60 87 
60 90 
60 92 
60 94 
60 95 
60 97 
60 100 
60 101 
60 103 
60 106 
60 108 
60 109 
60 112 
60 113 
60 115 
60 117 
60 120 
60 122 
60 123 
60 125 
60 128 
60 130 
60 131 
60 133 
60 136 
60 138 
60 139 
60 141 
60 143 
60 145 
60 148 
60 150 
60 151 
60 154 
60 155 
60 158 
60 159 
61 62 
61 81 
61 83 
61 85 
61 87 
61 89 
61 91 
61 94 
61 96 
61 97 
61 99 
61 101 
61 104 
61 106 
61 108 
61 110 
61 112 
61 113 
61 115 
61 118 
61 119 
61 121 
61 124 
61 126 
61 127 
61 130 
61 132 
61 134 
61 136 
61 137 
61 139 
61 141 
61 144 
61 145 
61 148 
61 150 
61 151 
61 154 
61 156 
61 158 
61 159 
62 82 
62 84 
62 86 
62 88 
62 90 
62 92 
62 93 
62 95 
62 98 
62 100 
62 102 
62 103 
62 105 
62 107 
62 109 
62 111 
62 114 
62 116 
62 117 
62 120 
62 122 
62 123 
62 125 
62 128 
62 129 
62 131 
62 133 
62 135 
62 138 
62 140 
62 142 
62 143 
62 146 
62 147 
62 149 
62 152 
62 153 
62 155 
62 157 
62 160 
63 64 
63 82 
63 83 
63 86 
63 88 
63 90 
63 91 
63 93 
63 95 
63 97 
63 99 
63 102 
63 103 
63 106 
63 108 
63 110 
63 112 
63 113 
63 116 
63 117 
63 119 
63 121 
63 123 
63 126 
63 127 
63 130 
63 132 
63 134 
63 135 
63 138 
63 140 
63 142 
63 143 
63 145 
63 147 
63 150 
63 151 
63 154 
63 155 
63 157 
63 160 
64 81 
64 84 
64 85 
64 87 
64 89 
64 92 
64 94 
64 96 
64 98 
64 100 
64 101 
64 104 
64 105 
64 107 
64 109 
64 111 
64 114 
64 115 
64 118 
64 120 
64 122 
64 124 
64 125 
64 128 
64 129 
64 131 
64 133 
64 136 
64 137 
64 139 
64 141 
64 144 
64 146 
64 148 
64 149 
64 152 
64 153 
64 156 
64 158 
64 159 
65 66 
65 82 
65 84 
65 85 
65 88 
65 90 
65 91 
65 94 
65 95 
65 98 
65 99 
65 101 
65 103 
65 106 
65 108 
65 110 
65 111 
65 114 
65 116 
65 118 
65 120 
65 121 
65 124 
65 126 
65 128 
65 129 
65 131 
65 133 
65 135 
65 137 
65 139 
65 141 
65 143 
65 145 
65 148 
65 149 
65 151 
65 154 
65 156 
65 157 
65 160 
66 81 
66 83 
66 86 
66 87 
66 89 
66 92 
66 93 
66 96 
66 97 
66 100 
66 102 
66 104 
66 105 
66 107 
66 109 
66 112 
66 113 
66 115 
66 117 
66 119 
66 122 
66 123 
66 125 
66 127 
66 130 
66 132 
66 134 
66 136 
66 138 
66 140 
66 142 
66 144 
66 146 
66 147 
66 150 
66 152 
66 153 
66 155 
66 158 
66 159 
67 68 
67 82 
67 83 
67 85 
67 87 
67 89 
67 92 
67 94 
67 96 
67 97 
67 99 
67 102 
67 103 
67 106 
67 108 
67 109 
67 111 
67 114 
67 116 
67 117 
67 120 
67 121 
67 123 
67 125 
67 127 
67 129 
67 132 
67 133 
67 135 
67 138 
67 139 
67 142 
67 144 
67 146 
67 148 
67 150 
67 151 
67 153 
67 156 
67 158 
67 160 
68 81 
68 84 
68 86 
68 88 
68 90 
68 91 
68 93 
68 95 
68 98 
68 100 
68 101 
68 104 
68 105 
68 107 
68 110 
68 112 
68 113 
68 115 
68 118 
68 119 
68 122 
68 124 
68 126 
68 128 
68 130 
68 131 
68 134 
68 136 
68 137 
68 140 
68 141 
68 143 
68 145 
68 147 
68 149 
68 152 
68 154 
68 155 
68 157 
68 159 
69 70 
69 81 
69 84 
69 86 
69 87 
69 89 
69 92 
69 93 
69 95 
69 98 
69 99 
69 101 
69 103 
69 105 
69 108 
69 110 
69 112 
69 114 
69 116 
69 117 
69 120 
69 122 
69 123 
69 126 
69 127 
69 129 
69 132 
69 134 
69 136 
69 137 
69 139 
69 141 
69 143 
69 145 
69 147 
69 150 
69 152 
69 153 
69 156 
69 158 
69 160 
70 82 
70 83 
70 85 
70 88 
70 90 
70 91 
70 94 
70 96 
70 97 
70 100 
70 102 
70 104 
70 106 
70 107 
70 109 
70 111 
70 113 
70 115 
70 118 
70 119 
70 121 
70 124 
70 125 
70 128 
70 130 
70 131 
70 133 
70 135 
70 138 
70 140 
70 142 
70 144 
70 146 
70 148 
70 149 
70 151 
70 154 
70 155 
70 157 
70 159 
71 72 
71 81 
71 83 
71 86 
71 87 
71 90 
71 91 
71 93 
71 95 
71 98 
71 100 
71 101 
71 104 
71 106 
71 107 
71 110 
71 111 
71 113 
71 116 
71 118 
71 120 
71 122 
71 123 
71 125 
71 127 
71 130 
71 132 
71 133 
71 135 
71 138 
71 140 
71 141 
71 144 
71 145 
71 148 
71 149 
71 151 
71 153 
71 156 
71 158 
71 160 
72 82 
72 84 
72 85 
72 88 
72 89 
72 92 
72 94 
72 96 
72 97 
72 99 
72 102 
72 103 
72 105 
72 108 
72 109 
72 112 
72 114 
72 115 
72 117 
72 119 
72 121 
72 124 
72 126 
72 128 
72 129 
72 131 
72 134 
72 136 
72 137 
72 139 
72 142 
72 143 
72 146 
72 147 
72 150 
72 152 
72 154 
72 155 
72 157 
72 159 
73 74 
73 82 
73 83 
73 86 
73 87 
73 90 
73 91 
73 94 
73 96 
73 98 
73 100 
73 101 
73 104 
73 105 
73 108 
73 109 
73 112 
73 114 
73 115 
73 117 
73 119 
73 121 
73 124 
73 126 
73 127 
73 130 
73 131 
73 133 
73 135 
73 138 
73 139 
73 142 
73 143 
73 145 
73 147 
73 149 
73 152 
73 153 
73 156 
73 158 
73 160 
74 81 
74 84 
74 85 
74 88 
74 89 
74 92 
74 93 
74 95 
74 97 
74 99 
74 102 
74 103 
74 106 
74 107 
74 110 
74 111 
74 113 
74 116 
74 118 
74 120 
74 122 
74 123 
74 125 
74 128 
74 129 
74 132 
74 134 
74 136 
74 137 
74 140 
74 141 
74 144 
74 146 
74 148 
74 150 
74 151 
74 154 
74 155 
74 157 
74 159 
75 76 
75 82 
75 83 
75 86 
75 88 
75 89 
75 92 
75 94 
75 95 
75 98 
75 100 
75 102 
75 104 
75 105 
75 108 
75 110 
75 111 
75 114 
75 115 
75 118 
75 119 
75 121 
75 123 
75 125 
75 128 
75 130 
75 132 
75 133 
75 136 
75 137 
75 139 
75 141 
75 144 
75 145 
75 147 
75 150 
75 151 
75 153 
75 155 
75 157 
75 160 
76 81 
76 84 
76 85 
76 87 
76 90 
76 91 
76 93 
76 96 
76 97 
76 99 
76 101 
76 103 
76 106 
76 107 
76 109 
76 112 
76 113 
76 116 
76 117 
76 120 
76 122 
76 124 
76 126 
76 127 
76 129 
76 131 
76 134 
76 135 
76 138 
76 140 
76 142 
76 143 
76 146 
76 148 
76 149 
76 152 
76 154 
76 156 
76 158 
76 159 
77 78 
77 81 
77 83 
77 85 
77 87 
77 90 
77 92 
77 94 
77 96 
77 98 
77 99 
77 101 
77 104 
77 105 
77 108 
77 110 
77 112 
77 113 
77 115 
77 118 
77 120 
77 122 
77 123 
77 125 
77 128 
77 129 
77 132 
77 134 
77 135 
77 138 
77 139 
77 142 
77 143 
77 146 
77 147 
77 149 
77 151 
77 154 
77 155 
77 157 
77 160 
78 82 
78 84 
78 86 
78 88 
78 89 
78 91 
78 93 
78 95 
78 97 
78 100 
78 102 
78 103 
78 106 
78 107 
78 109 
78 111 
78 114 
78 116 
78 117 
78 119 
78 121 
78 124 
78 126 
78 127 
78 130 
78 131 
78 133 
78 136 
78 137 
78 140 
78 141 
78 144 
78 145 
78 148 
78 150 
78 152 
78 153 
78 156 
78 158 
78 159 
79 80 
79 81 
79 84 
79 86 
79 87 
79 90 
79 92 
79 94 
79 96 
79 98 
79 100 
79 102 
79 103 
79 105 
79 107 
79 109 
79 111 
79 113 
79 116 
79 117 
79 119 
79 121 
79 124 
79 126 
79 127 
79 129 
79 132 
79 134 
79 136 
79 138 
79 139 
79 141 
79 144 
79 145 
79 148 
79 149 
79 151 
79 154 
79 155 
79 157 
79 160 
80 82 
80 83 
80 85 
80 88 
80 89 
80 91 
80 93 
80 95 
80 97 
80 99 
80 101 
80 104 
80 106 
80 108 
80 110 
80 112 
80 114 
80 115 
80 118 
80 120 
80 122 
80 123 
80 125 
80 128 
80 130 
80 131 
80 133 
80 135 
80 137 
80 140 
80 142 
80 143 
80 146 
80 147 
80 150 
80 152 
80 153 
80 156 
80 158 
80 159 
81 82 
83 84 
85 86 
87 88 
89 90 
91 92 
93 94 
95 96 
97 98 
99 100 
101 102 
103 104 
105 106 
107 108 
109 110 
111 112 
113 114 
115 116 
117 118 
119 120 
121 122 
123 124 
125 126 
127 128 
129 130 
131 132 
133 134 
135 136 
137 138 
139 140 
141 142 
143 144 
145 146 
147 148 
149 150 
151 152 
153 154 
155 156 
157 158 
159 160 
